p tw 129 141
1 2
2 42
3 14
4 5
5 6
5 9
6 7
7 8
8 16
9 10
10 11
11 12
12 13
13 15
14 25
15 115
16 17
17 18
18 19
19 20
20 21
21 22
22 23
23 24
24 26
25 35
25 31
26 86
27 28
28 29
29 30
30 86
31 32
32 33
33 34
35 36
36 37
37 38
38 39
39 40
40 41
41 43
42 53
43 44
44 45
45 46
46 47
47 48
48 49
49 50
50 51
50 27
51 52
52 54
53 64
54 55
54 58
55 56
56 57
57 33
58 59
59 60
60 61
61 62
62 63
63 65
64 75
65 66
66 67
67 68
68 69
69 70
70 71
71 72
71 92
72 73
73 74
74 76
75 86
76 77
77 78
78 79
79 80
79 81
80 81
81 82
82 83
83 84
84 85
85 87
86 97
87 88
88 89
89 90
90 91
91 23
92 93
93 94
94 95
95 96
96 98
97 108
97 31
98 99
99 100
100 101
101 102
101 23
102 103
103 104
104 105
105 106
106 107
107 109
108 119
109 110
110 111
110 16
111 112
112 113
113 114
114 115
115 116
116 117
117 118
118 120
119 3
120 121
121 122
121 16
122 123
123 124
124 125
125 126
125 6
126 127
127 128
127 6
128 129
129 4
129 6
